#n B3LYP/6-31G(d) Opt

 Title

0 1
C          5.29758        4.02476        0.00000
C          5.18576        4.83257        3.67392
C          5.13703        4.98868        2.26236
C          4.45524        6.09853        1.69435
C          4.33802        6.21256        0.28279
C          5.28006        4.34712        7.91584
C          5.25787        4.50915        6.50428
C          4.76942        5.71663        5.93628
C          4.67271        5.84852        4.52472
C          3.66800        6.67746        3.95671
C          3.52014        6.74735        2.54515
C          2.24185        6.99752        1.97715
C          2.07856        6.98852        0.56559
C          5.01597        5.28796       10.17820
C          4.94246        5.43404        8.76664
C          4.08899        6.41802        8.19864
C          3.95477        6.51144        6.78708
C          2.73560        6.96998        6.21907
C          2.57308        6.98817        4.80751
C          1.28271        6.81050        4.23951
C          1.13115        6.74906        2.82795
C          0.08128        5.97811        2.25994
C         -0.02271        5.85189        0.84838
C         -0.57849        4.67387        0.28038
C          3.21797        6.86100       10.46100
C          3.06070        6.90587        9.04944
C          1.75874        6.94449        8.48143
C          1.59909        6.90902        7.06987
C          0.43598        6.32270        6.50187
C          0.31251        6.21545        5.09031
C         -0.43080        5.14582        4.52230
C         -0.48826        4.99271        3.11074
C         -0.63220        3.69815        2.54274
C         -0.60978        3.53616        1.13118
C         -0.11960        2.32937        0.56317
C          0.84287        6.60374       10.74379
C          0.70334        6.51844        9.33223
C         -0.20694        5.58677        8.76423
C         -0.28898        5.44530        7.35267
C         -0.64546        4.19249        6.78466
C         -0.65019        4.02902        5.37310
C         -0.36676        2.75769        4.80510
C         -0.29304        2.61171        3.39354
C          0.56183        1.62896        2.82553
C          0.69619        1.53573        1.41397
C          1.91601        1.07894        0.84597
C         -0.60837        4.52177        9.61503
C         -0.53953        3.22105        9.04702
C         -0.49102        3.06487        7.63546
C          0.18918        1.95405        7.06746
C          0.30623        1.83984        5.65590
C          1.43349        1.18723        5.08789
C          1.59082        1.14259        3.67633
C          2.89284        1.10584        3.10833
C          3.05243        1.14154        1.69677
C          4.21471        1.72953        1.12876
C         -0.02794        2.20437        9.89782
C          0.97559        1.37398        9.32982
C          1.12334        1.30388        7.91826
C          2.40127        1.05188        7.35025
C          2.56457        1.06064        5.93869
C          3.80822        1.44790        5.37069
C          3.94762        1.53340        3.95913
C          4.85656        2.46637        3.39112
C          4.93840        2.60796        1.97956
C          5.29308        3.86128        1.41156
C          2.07006        1.06170       10.18062
C          3.36067        1.23752        9.61261
C          3.51232        1.29874        8.20105
C          4.56330        2.06819        7.63305
C          4.66747        2.19426        6.22149
C          5.22494        3.37148        5.65348
C          5.25646        3.53195        4.24192
C          4.33173        1.83118       10.46341
C          5.07657        2.89974        9.89541
C          5.13425        3.05277        8.48385
C          5.29758        4.02476       10.74621
C          5.18576        4.83257       14.42013
C          5.13703        4.98868       13.00857
C          4.45524        6.09853       12.44057
C          4.33802        6.21256       11.02901
C          5.28006        4.34712       18.66205
C          5.25787        4.50915       17.25050
C          4.76942        5.71663       16.68249
C          4.67271        5.84852       15.27093
C          3.66800        6.67746       14.70292
C          3.52014        6.74735       13.29137
C          2.24185        6.99752       12.72336
C          2.07856        6.98852       11.31180
C          4.94246        5.43404       19.51286
C          4.08899        6.41802       18.94485
C          3.95477        6.51144       17.53329
C          2.73560        6.96998       16.96528
C          2.57308        6.98817       15.55373
C          1.28271        6.81050       14.98572
C          1.13115        6.74906       13.57416
C          0.08128        5.97811       13.00615
C         -0.02271        5.85189       11.59460
C         -0.57849        4.67387       11.02659
C          3.06070        6.90587       19.79565
C          1.75874        6.94449       19.22764
C          1.59909        6.90902       17.81609
C          0.43598        6.32270       17.24808
C          0.31251        6.21545       15.83652
C         -0.43080        5.14582       15.26851
C         -0.48826        4.99271       13.85696
C         -0.63220        3.69815       13.28895
C         -0.60978        3.53616       11.87739
C         -0.11960        2.32937       11.30939
C         -0.20694        5.58677       19.51044
C         -0.28898        5.44530       18.09888
C         -0.64546        4.19249       17.53087
C         -0.65019        4.02902       16.11932
C         -0.36676        2.75769       15.55131
C         -0.29304        2.61171       14.13975
C          0.56183        1.62896       13.57174
C          0.69619        1.53573       12.16019
C          1.91601        1.07894       11.59218
C         -0.53953        3.22105       19.79323
C         -0.49102        3.06487       18.38168
C          0.18918        1.95405       17.81367
C          0.30623        1.83984       16.40211
C          1.43349        1.18723       15.83410
C          1.59082        1.14259       14.42255
C          2.89284        1.10584       13.85454
C          3.05243        1.14154       12.44298
C          4.21471        1.72953       11.87498
C          1.12334        1.30388       18.66447
C          2.40127        1.05188       18.09646
C          2.56457        1.06064       16.68491
C          3.80822        1.44790       16.11690
C          3.94762        1.53340       14.70534
C          4.85656        2.46637       14.13733
C          4.93840        2.60796       12.72578
C          5.29308        3.86128       12.15777
C          3.51232        1.29874       18.94727
C          4.56330        2.06819       18.37926
C          4.66747        2.19426       16.96770
C          5.22494        3.37148       16.39969
C          5.25646        3.53195       14.98814
C          5.13425        3.05277       19.23006

